c description: Random 2-CNF over 15 variables and 80 clauses
c generator: CNFgen (0.9.0)
c copyright: (C) 2012-2020 Massimo Lauria <massimo.lauria@uniroma1.it>
c url: https://massimolauria.net/cnfgen
c
p cnf 15 80
2 11 0
3 -13 0
12 15 0
-4 -15 0
-10 12 0
5 13 0
-7 15 0
8 -14 0
-9 10 0
2 5 0
-8 13 0
-4 7 0
6 -14 0
-1 -6 0
-2 -12 0
-2 -3 0
-4 9 0
5 -8 0
-5 -12 0
-1 -7 0
-7 -12 0
-7 -11 0
-3 -8 0
-10 -12 0
4 -14 0
-2 -10 0
13 15 0
-2 -6 0
3 6 0
-5 13 0
-10 -11 0
1 14 0
-9 12 0
1 5 0
11 15 0
-6 -9 0
-7 14 0
-1 -15 0
4 -6 0
11 14 0
6 14 0
-10 -14 0
-2 15 0
-11 -15 0
-4 8 0
-7 12 0
-9 -13 0
4 -5 0
-10 13 0
-11 12 0
2 -13 0
6 -13 0
7 10 0
-12 -13 0
4 5 0
-11 -13 0
-1 -12 0
4 -8 0
11 12 0
-2 -5 0
1 -13 0
-11 15 0
-1 -5 0
-6 -8 0
12 13 0
5 10 0
7 9 0
-1 -11 0
7 14 0
-5 -9 0
1 -11 0
4 -12 0
1 -9 0
13 -14 0
-7 -8 0
3 -4 0
2 -10 0
-1 6 0
-5 -15 0
-13 15 0